///////////////////////////////////////
//
//     Análise de sensibilidade
//
///////////////////////////////////////


/* Função objectivo  */
max: 2 x1 + x2;

/* Restrições */

R1: x1 - 2 x2 <= 4;
R2:        x2 <= 2;


       
       